c File: instances/38_0.55_3.col
c
c Description: Random graph of size 38 vertices and P(0.5499999999999999) of edges between any two vertices.
p col 38 703
e 1 2
e 1 3
e 1 5
e 1 7
e 1 9
e 1 11
e 1 14
e 1 15
e 1 17
e 1 18
e 1 22
e 1 28
e 1 29
e 1 32
e 1 34
e 1 36
e 2 4
e 2 5
e 2 7
e 2 9
e 2 11
e 2 13
e 2 15
e 2 17
e 2 19
e 2 20
e 2 21
e 2 22
e 2 25
e 2 27
e 2 29
e 2 30
e 2 32
e 2 33
e 2 34
e 2 36
e 2 37
e 2 38
e 3 4
e 3 6
e 3 9
e 3 11
e 3 13
e 3 17
e 3 23
e 3 26
e 3 27
e 3 28
e 3 30
e 3 31
e 3 33
e 3 34
e 4 5
e 4 6
e 4 8
e 4 9
e 4 10
e 4 12
e 4 13
e 4 14
e 4 16
e 4 18
e 4 19
e 4 21
e 4 23
e 4 25
e 4 28
e 4 29
e 4 30
e 4 31
e 4 32
e 4 33
e 4 34
e 4 35
e 4 37
e 4 38
e 5 6
e 5 7
e 5 9
e 5 14
e 5 15
e 5 17
e 5 18
e 5 20
e 5 21
e 5 23
e 5 24
e 5 25
e 5 29
e 5 30
e 5 31
e 5 32
e 5 34
e 5 35
e 6 7
e 6 10
e 6 12
e 6 15
e 6 16
e 6 17
e 6 18
e 6 21
e 6 22
e 6 23
e 6 25
e 6 28
e 6 30
e 6 31
e 6 33
e 6 34
e 6 35
e 6 36
e 6 37
e 6 38
e 7 8
e 7 10
e 7 12
e 7 13
e 7 19
e 7 20
e 7 22
e 7 24
e 7 25
e 7 26
e 7 29
e 7 31
e 7 32
e 7 34
e 8 9
e 8 11
e 8 13
e 8 14
e 8 15
e 8 21
e 8 22
e 8 24
e 8 25
e 8 26
e 8 29
e 8 31
e 8 33
e 8 34
e 8 38
e 9 13
e 9 14
e 9 17
e 9 18
e 9 19
e 9 20
e 9 22
e 9 23
e 9 24
e 9 25
e 9 26
e 9 27
e 9 29
e 9 33
e 9 34
e 9 37
e 9 38
e 10 11
e 10 13
e 10 14
e 10 15
e 10 18
e 10 19
e 10 21
e 10 23
e 10 24
e 10 25
e 10 26
e 10 27
e 10 28
e 10 29
e 10 30
e 10 31
e 10 33
e 10 34
e 10 37
e 10 38
e 11 14
e 11 15
e 11 19
e 11 20
e 11 22
e 11 23
e 11 24
e 11 27
e 11 29
e 11 30
e 11 31
e 11 34
e 11 38
e 12 13
e 12 15
e 12 16
e 12 18
e 12 19
e 12 20
e 12 22
e 12 23
e 12 27
e 12 28
e 12 29
e 12 34
e 13 15
e 13 17
e 13 18
e 13 22
e 13 26
e 13 28
e 13 30
e 13 31
e 13 32
e 13 35
e 13 36
e 13 37
e 13 38
e 14 15
e 14 18
e 14 21
e 14 23
e 14 26
e 14 28
e 14 30
e 14 31
e 14 32
e 14 35
e 14 36
e 14 38
e 15 17
e 15 18
e 15 19
e 15 23
e 15 28
e 15 29
e 15 30
e 15 33
e 15 35
e 15 37
e 15 38
e 16 18
e 16 19
e 16 22
e 16 24
e 16 26
e 16 27
e 16 28
e 16 29
e 16 30
e 16 31
e 16 33
e 16 34
e 16 35
e 16 37
e 17 18
e 17 19
e 17 21
e 17 23
e 17 24
e 17 27
e 17 28
e 17 32
e 17 33
e 17 36
e 17 37
e 17 38
e 18 21
e 18 22
e 18 23
e 18 25
e 18 26
e 18 27
e 18 30
e 18 32
e 18 36
e 19 20
e 19 21
e 19 22
e 19 23
e 19 24
e 19 25
e 19 27
e 19 28
e 19 33
e 20 21
e 20 22
e 20 23
e 20 25
e 20 29
e 20 30
e 20 31
e 20 32
e 20 33
e 20 36
e 21 22
e 21 23
e 21 26
e 21 28
e 21 29
e 21 30
e 21 31
e 21 32
e 21 33
e 21 35
e 21 36
e 21 37
e 22 23
e 22 25
e 22 28
e 22 31
e 22 32
e 22 34
e 22 35
e 22 36
e 22 38
e 23 25
e 23 26
e 23 27
e 23 31
e 23 33
e 23 34
e 23 36
e 24 25
e 24 26
e 24 28
e 24 29
e 24 31
e 24 32
e 24 33
e 24 34
e 24 37
e 24 38
e 25 26
e 25 29
e 25 31
e 25 32
e 25 36
e 25 38
e 26 28
e 26 32
e 26 33
e 26 34
e 26 35
e 26 36
e 26 37
e 26 38
e 27 32
e 27 37
e 27 38
e 28 29
e 28 31
e 28 35
e 28 37
e 29 31
e 29 32
e 29 34
e 29 38
e 30 31
e 30 33
e 30 34
e 30 37
e 30 38
e 31 33
e 31 34
e 32 33
e 32 36
e 32 37
e 32 38
e 33 34
e 33 35
e 33 37
e 33 38
e 34 35
e 34 37
e 34 38
e 35 36
e 35 38
e 36 37
e 36 38